p edge 15 28
e 1 11
e 1 12
e 1 13
e 2 4
e 2 9
e 2 10
e 2 13
e 3 6
e 3 13
e 3 15
e 4 6
e 4 11
e 4 15
e 5 9
e 5 13
e 5 15
e 6 9
e 7 10
e 7 14
e 8 10
e 9 10
e 9 12
e 10 12
e 10 14
e 10 15
e 11 14
e 12 14
e 12 15
